8 5 5 4 6 2 -1 6 -1 -1 
9 0 1 8 5 -1 4 1 4 -1 
8 -1 9 4 8 4 4 -1 2 -1 
9 6 9 3 -1 3 0 2 3 -1 
2 5 0 9 7 4 0 8 8 -1 
-1 3 5 3 7 -1 6 7 2 -1 
-1 2 6 7 3 6 -1 5 5 -1 
8 0 8 9 1 7 5 5 7 -1 
9 6 5 1 0 6 6 4 7 -1 
7 3 3 6 5 3 2 4 8 -1 
